(declare-fun x1_ack!43 () (_ BitVec 64))
(declare-fun x0_ack!47 () (_ BitVec 64))
(declare-fun y0_ack!44 () (_ BitVec 64))
(declare-fun x_ack!45 () (_ BitVec 64))
(declare-fun y_ack!46 () (_ BitVec 64))
(assert (not (fp.geq ((_ to_fp 11 53) x0_ack!47) ((_ to_fp 11 53) x1_ack!43))))
(assert (not (fp.geq ((_ to_fp 11 53) y0_ack!44) ((_ to_fp 11 53) #x3ff0000000000000))))
(assert (not (fp.lt ((_ to_fp 11 53) x_ack!45) ((_ to_fp 11 53) x0_ack!47))))
(assert (not (fp.gt ((_ to_fp 11 53) x_ack!45) ((_ to_fp 11 53) x1_ack!43))))
(assert (not (fp.lt ((_ to_fp 11 53) y_ack!46) ((_ to_fp 11 53) y0_ack!44))))
(assert (fp.gt ((_ to_fp 11 53) y_ack!46) ((_ to_fp 11 53) #x3ff0000000000000)))

(check-sat)
(exit)
